SLURM_JOB_ID: 55214594
SLURM_JOB_USER: vsc34888
SLURM_JOB_ACCOUNT: lp_elect_gen_modeling
SLURM_JOB_NAME: 9n_full_MILP
SLURM_CLUSTER_NAME: genius
SLURM_JOB_PARTITION: batch
SLURM_NNODES: 1
SLURM_NODELIST: r27i27n10
SLURM_JOB_CPUS_PER_NODE: 36
Date: Wed Sep 13 11:40:08 CEST 2023
Walltime: 03-00:00:00
========================================================================
Activation OK
Starting runs

 #### Academic research license - for non-commercial use only #### 

9n
/vsc-hard-mounts/leuven-data/348/vsc34888/JointResearch/05.Models/06.Benchmarking/A.The_full_year_MILP
gurobi
['oSN_Main_v2.py']
Namespace(case='9n', dir='/vsc-hard-mounts/leuven-data/348/vsc34888/JointResearch/05.Models/06.Benchmarking/A.The_full_year_MILP', solver='gurobi')
Namespace(case='9n', dir='/vsc-hard-mounts/leuven-data/348/vsc34888/JointResearch/05.Models/06.Benchmarking/A.The_full_year_MILP', solver='gurobi')
Reading    input data                 ...  0 s
Setting up input data                 ...  9 s
Generating objective function         ...  2 s
Generating operation & investment     ...  0 s
Generating balance                    ...  18 s
Generating storage operation          ...  0 s
Generating generation commitment      ...  6 s
Generating generation capacity        ...  3 s
Generating net P capacity bounds      ...  8 s
Generating net Q capacity bounds      ...  8 s
Generating net P constraints          ...  33 s
Generating net Q constraints          ...  37 s
Generating net voltage bounds         ...  1 s
Generating net non negative losses    ...  1 s
Generating net linear SOC2            ...  4 s
Generating net gshb injection         ...  0 s
Generating net bshb injection         ...  0 s
Econometric analysis  constraints     ...  0 s
Writing LP file                       ...  150 s
Set parameter Username
Set parameter TokenServer to value "SET-S-ME-LM3.luna.kuleuven.be"
Read LP format model from file /tmp/tmp2vn1i0z4.pyomo.lp
Reading time = 11.11 seconds
x1: 4210755 rows, 1900399 columns, 13646246 nonzeros
Set parameter QCPDual to value 1
Set parameter LogFile to value "/vsc-hard-mounts/leuven-data/348/vsc34888/JointResearch/05.Models/06.Benchmarking/A.The_full_year_MILP/9n/openStarNet_9n.log"
Set parameter Method to value 2
Set parameter MIPFocus to value 1
Set parameter Presolve to value 2
Set parameter RINS to value 100
Set parameter MIPGap to value 0.01
Set parameter Threads to value 36
Set parameter TimeLimit to value 76000
Set parameter IterationLimit to value 76000000
Gurobi Optimizer version 9.5.0 build v9.5.0rc5 (linux64)
Thread count: 36 physical cores, 36 logical processors, using up to 36 threads
Optimize a model with 4210755 rows, 1900399 columns and 13646246 nonzeros
Model fingerprint: 0x9cce4b82
Variable types: 1900387 continuous, 12 integer (12 binary)
Coefficient statistics:
  Matrix range     [5e-04, 2e+02]
  Objective range  [1e+00, 1e+00]
  Bounds range     [4e-04, 1e+00]
  RHS range        [4e-04, 1e+00]
Presolve removed 1039596 rows and 244630 columns (presolve time = 6s) ...
Presolve removed 1465679 rows and 330000 columns (presolve time = 10s) ...
Presolve removed 1616163 rows and 515428 columns (presolve time = 15s) ...
Presolve removed 1616163 rows and 515428 columns (presolve time = 20s) ...
Presolve removed 1616163 rows and 515428 columns (presolve time = 25s) ...
Presolve removed 1616163 rows and 515428 columns (presolve time = 31s) ...
Presolve removed 1616163 rows and 515428 columns
Presolve time: 34.50s
Presolved: 2594592 rows, 1384971 columns, 9387135 nonzeros
Variable types: 1384959 continuous, 12 integer (12 binary)
Root relaxation presolve removed 0 rows and 0 columns (presolve time = 5s) ...
Root relaxation presolved: 2594592 rows, 1384971 columns, 9387135 nonzeros

Root barrier log...

Ordering time: 1.10s

Barrier statistics:
 Dense cols : 12
 AA' NZ     : 2.830e+07
 Factor NZ  : 5.704e+07 (roughly 2.0 GB of memory)
 Factor Ops : 1.703e+09 (less than 1 second per iteration)
 Threads    : 35

                  Objective                Residual
Iter       Primal          Dual         Primal    Dual     Compl     Time
   0   6.46855966e+05 -5.01254164e+07  8.18e+00 2.03e+00  3.10e+01    65s
   1   1.77747139e+05 -1.64414558e+07  1.18e+00 1.91e+00  5.26e+00    66s
   2   6.92670638e+04 -2.62607375e+06  4.10e-02 2.99e-02  5.85e-01    68s
   3   1.34663907e+04 -4.76187275e+05  2.25e-03 6.45e-10  1.02e-01    70s
   4   4.23725920e+03 -2.02037309e+04  2.89e-04 1.82e-11  5.09e-03    71s
   5   1.74110380e+03 -6.80396730e+03  4.41e-05 6.81e-12  1.78e-03    72s
   6   1.18875920e+03 -2.41657257e+03  2.09e-05 3.22e-12  7.49e-04    73s
   7   8.59136518e+02 -2.65055748e+02  9.68e-06 1.69e-12  2.33e-04    74s
   8   5.20581729e+02  2.47590893e+02  1.83e-06 1.69e-12  5.66e-05    75s
   9   5.06803871e+02  3.16428509e+02  1.59e-06 6.82e-13  3.94e-05    77s
  10   4.82942371e+02  3.26649510e+02  1.19e-06 8.31e-13  3.24e-05    78s
  11   4.80816600e+02  3.29558453e+02  1.15e-06 3.69e-13  3.13e-05    79s
  12   4.73856496e+02  3.36245449e+02  1.01e-06 7.43e-13  2.85e-05    80s
  13   4.65836969e+02  3.42964858e+02  8.47e-07 5.86e-13  2.55e-05    81s
  14   4.53385891e+02  3.54599995e+02  5.84e-07 8.95e-13  2.05e-05    83s
  15   4.44801283e+02  3.65056522e+02  3.97e-07 6.25e-13  1.65e-05    85s
  16   4.41333396e+02  3.75756246e+02  3.23e-07 1.03e-12  1.36e-05    87s
  17   4.38009546e+02  3.85235602e+02  2.47e-07 5.47e-13  1.09e-05    89s
  18   4.35254673e+02  3.91222280e+02  1.84e-07 3.55e-13  9.12e-06    91s
  19   4.33788536e+02  3.96124146e+02  1.52e-07 9.38e-13  7.80e-06    93s
  20   4.32394826e+02  3.99801565e+02  1.23e-07 4.26e-13  6.75e-06    95s
  21   4.31803120e+02  4.03028229e+02  1.10e-07 5.04e-13  5.96e-06    98s
  22   4.31170160e+02  4.03993684e+02  9.64e-08 9.95e-13  5.63e-06    99s
  23   4.30466262e+02  4.07042168e+02  8.15e-08 4.16e-13  4.85e-06   101s
  24   4.29672119e+02  4.09136962e+02  6.50e-08 3.41e-13  4.25e-06   103s
  25   4.28978431e+02  4.11523346e+02  5.05e-08 8.38e-13  3.62e-06   106s
  26   4.28344859e+02  4.13230902e+02  3.74e-08 5.79e-13  3.13e-06   108s
  27   4.28097919e+02  4.14424509e+02  3.23e-08 7.67e-13  2.83e-06   110s
  28   4.27741078e+02  4.15860004e+02  1.20e-06 3.84e-13  2.46e-06   112s
  29   4.27515711e+02  4.17184496e+02  2.20e-06 4.76e-13  2.14e-06   114s
  30   4.27321831e+02  4.18386195e+02  2.95e-06 4.26e-13  1.85e-06   116s
  31   4.27169873e+02  4.18835856e+02  3.42e-06 4.58e-13  1.73e-06   118s
  32   4.27095492e+02  4.19357496e+02  3.55e-06 2.34e-13  1.60e-06   120s
  33   4.26924086e+02  4.20144133e+02  3.80e-06 5.19e-13  1.40e-06   122s
  34   4.26863239e+02  4.20633969e+02  3.89e-06 4.65e-13  1.29e-06   124s
  35   4.26781235e+02  4.21416992e+02  3.96e-06 5.04e-13  1.11e-06   126s
  36   4.26737650e+02  4.21997723e+02  3.91e-06 4.44e-13  9.82e-07   128s
  37   4.26678485e+02  4.22811980e+02  3.77e-06 6.89e-13  8.01e-07   130s
  38   4.26637588e+02  4.22921191e+02  3.65e-06 6.75e-13  7.70e-07   132s
  39   4.26579441e+02  4.23455070e+02  3.38e-06 5.40e-13  6.47e-07   134s
  40   4.26548151e+02  4.23767484e+02  3.21e-06 6.68e-13  5.76e-07   136s
  41   4.26534024e+02  4.23961844e+02  3.11e-06 7.11e-13  5.33e-07   138s
  42   4.26473350e+02  4.24245072e+02  2.71e-06 5.40e-13  4.62e-07   140s
  43   4.26440246e+02  4.24424522e+02  2.40e-06 3.91e-13  4.18e-07   142s
  44   4.26415234e+02  4.24815531e+02  2.18e-06 4.73e-13  3.31e-07   144s
  45   4.26402294e+02  4.25008272e+02  2.01e-06 4.12e-13  2.89e-07   146s
  46   4.26385740e+02  4.25109889e+02  1.75e-06 3.66e-13  2.64e-07   148s
  47   4.26375640e+02  4.25435778e+02  1.61e-06 2.95e-13  1.95e-07   150s
  48   4.26363857e+02  4.25513103e+02  1.44e-06 3.38e-13  1.76e-07   152s
  49   4.26358141e+02  4.25577002e+02  1.34e-06 4.65e-13  1.62e-07   154s
  50   4.26355377e+02  4.25606488e+02  1.30e-06 4.87e-13  1.55e-07   156s
  51   4.26351862e+02  4.25710631e+02  1.24e-06 9.59e-13  1.33e-07   158s
  52   4.26350833e+02  4.25748129e+02  1.22e-06 3.34e-13  1.25e-07   160s
  53   4.26349072e+02  4.25794088e+02  1.18e-06 5.83e-13  1.15e-07   162s
  54   4.26346245e+02  4.25872487e+02  1.04e-06 1.88e-13  9.82e-08   165s
  55   4.26344575e+02  4.25885649e+02  9.61e-07 2.84e-13  9.51e-08   168s
  56   4.26343096e+02  4.25958624e+02  8.03e-07 4.33e-13  7.97e-08   170s
  57   4.26341564e+02  4.26032648e+02  6.20e-07 6.47e-13  6.40e-08   173s
  58   4.26340122e+02  4.26071852e+02  4.57e-07 5.79e-13  5.56e-08   175s
  59   4.26338673e+02  4.26130996e+02  3.00e-07 4.90e-13  4.30e-08   177s
  60   4.26337687e+02  4.26160905e+02  1.91e-07 2.77e-13  3.66e-08   180s
  61   4.26337025e+02  4.26211143e+02  1.46e-07 6.15e-13  2.61e-08   182s
  62   4.26336832e+02  4.26213492e+02  1.34e-07 4.69e-13  2.56e-08   184s
  63   4.26336391e+02  4.26228140e+02  1.05e-07 2.42e-13  2.24e-08   186s
  64   4.26335885e+02  4.26276917e+02  5.53e-08 3.20e-13  1.22e-08   188s
  65   4.26335432e+02  4.26281871e+02  2.29e-08 1.28e-13  1.11e-08   190s
  66   4.26335369e+02  4.26291590e+02  2.08e-08 2.31e-13  9.07e-09   192s
  67   4.26335291e+02  4.26296672e+02  1.83e-08 5.97e-13  8.00e-09   193s
  68   4.26335234e+02  4.26305370e+02  1.61e-08 2.03e-13  6.19e-09   195s
  69   4.26335042e+02  4.26306873e+02  9.02e-09 1.92e-13  5.84e-09   197s
  70   4.26335050e+02  4.26316930e+02  7.06e-09 3.34e-13  3.75e-09   199s
  71   4.26334987e+02  4.26334189e+02  3.64e-09 2.70e-13  1.65e-10   201s
  72   4.26334797e+02  4.26334794e+02  1.11e-09 2.16e-12  5.15e-13   203s

Barrier solved model in 72 iterations and 202.62 seconds (156.28 work units)
Optimal objective 4.26334797e+02


Root crossover log...

  299929 DPushes remaining with DInf 0.0000000e+00               205s
    3530 DPushes remaining with DInf 0.0000000e+00               206s
       0 DPushes remaining with DInf 0.0000000e+00               207s

  375517 PPushes remaining with PInf 0.0000000e+00               207s
  143279 PPushes remaining with PInf 2.7987561e-05               210s
   53322 PPushes remaining with PInf 0.0000000e+00               216s
   32924 PPushes remaining with PInf 0.0000000e+00               221s
   20739 PPushes remaining with PInf 0.0000000e+00               227s
   11021 PPushes remaining with PInf 0.0000000e+00               234s
    4084 PPushes remaining with PInf 0.0000000e+00               238s
    2156 PPushes remaining with PInf 0.0000000e+00               241s
       0 PPushes remaining with PInf 0.0000000e+00               249s

  Push phase complete: Pinf 0.0000000e+00, Dinf 5.9612446e-11    249s


Root simplex log...

Iteration    Objective       Primal Inf.    Dual Inf.      Time
  487757    4.2633480e+02   0.000000e+00   0.000000e+00    258s
  487757    4.2633480e+02   0.000000e+00   0.000000e+00    266s

Root relaxation: objective 4.263348e+02, 487757 iterations, 216.63 seconds (178.44 work units)

    Nodes    |    Current Node    |     Objective Bounds      |     Work
 Expl Unexpl |  Obj  Depth IntInf | Incumbent    BestBd   Gap | It/Node Time

     0     0  426.33480    0    4          -  426.33480      -     -  267s
H    0     0                    17106.533187  426.33480  97.5%     -  322s
     0     0  457.36685    0    2 17106.5332  457.36685  97.3%     - 1810s
H    0     0                     458.5129279  457.36685  0.25%     - 1868s

Cutting planes:
  Implied bound: 11832
  MIR: 24297
  RLT: 8

Explored 1 nodes (674605 simplex iterations) in 1868.36 seconds (1613.35 work units)
Thread count was 36 (of 36 available processors)

Solution count 2: 458.513 17106.5 

Optimal solution found (tolerance 1.00e-02)
Warning: max constraint violation (4.4156e-06) exceeds tolerance
Best objective 4.585129279223e+02, best bound 4.573668460675e+02, gap 0.2500%
Termination condition:  optimal
# ==========================================================
# = Solver Results                                         =
# ==========================================================
# ----------------------------------------------------------
#   Problem Information
# ----------------------------------------------------------
Problem: 
- Name: x1
  Lower bound: 457.3668460675378
  Upper bound: 458.5129279223496
  Number of objectives: 1
  Number of constraints: 4210755
  Number of variables: 1900399
  Number of binary variables: 12
  Number of integer variables: 12
  Number of continuous variables: 1900387
  Number of nonzeros: 13646246
  Sense: minimize
# ----------------------------------------------------------
#   Solver Information
# ----------------------------------------------------------
Solver: 
- Status: ok
  Return code: 0
  Message: Model was solved to optimality (subject to tolerances), and an optimal solution is available.
  Termination condition: optimal
  Termination message: Model was solved to optimality (subject to tolerances), and an optimal solution is available.
  Wall time: 1868.4155209064484
  Error rc: 0
  Time: 1891.3914270401
# ----------------------------------------------------------
#   Solution Information
# ----------------------------------------------------------
Solution: 
- number of solutions: 0
  number of solutions displayed: 0
# ============================================================================= #
# ============================================================================= #
fixing: vNetworkInvest[2030,Node_4,Node_6,cac1]
fixing: vNetworkInvest[2030,Node_1,Node_6,cac1]
fixing: vNetworkInvest[2030,Node_6,Node_8,cac1]
fixing: vNetworkInvest[2030,Node_8,Node_9,cac1]
fixing: vNetworkInvest[2030,Node_6,Node_7,cac1]
fixing: vNetworkInvest[2030,Node_4,Node_9,cac1]
fixing: vNetworkInvest[2030,Node_3,Node_6,cac1]
fixing: vNetworkInvest[2030,Node_7,Node_8,cac1]
fixing: vNetworkInvest[2030,Node_2,Node_6,cac1]
fixing: vNetworkInvest[2030,Node_2,Node_3,cac1]
fixing: vNetworkInvest[2030,Node_3,Node_4,cac1]
fixing: vNetworkInvest[2030,Node_4,Node_5,cac1]
Number of fixed variables:  12
# ============================================================================= #
# ============================================================================= #
WARNING: Implicitly replacing the Component attribute dual (type=<class
'pyomo.core.base.suffix.Suffix'>) on block 'openStarNet - Open Version of the
StartNetLite Model (Long Term Transmission Expansion Planning) - Version 1.0.0
- January 16, 2023' with a new Component (type=<class
'pyomo.core.base.suffix.Suffix'>). This is usually indicative of a modelling
error. To avoid this warning, use block.del_component() and
block.add_component().
WARNING: Implicitly replacing the Component attribute rc (type=<class
'pyomo.core.base.suffix.Suffix'>) on block 'openStarNet - Open Version of the
StartNetLite Model (Long Term Transmission Expansion Planning) - Version 1.0.0
- January 16, 2023' with a new Component (type=<class
'pyomo.core.base.suffix.Suffix'>). This is usually indicative of a modelling
error. To avoid this warning, use block.del_component() and
block.add_component().
# ==========================================================
# = Solver Results                                         =
# ==========================================================
# ----------------------------------------------------------
#   Problem Information
# ----------------------------------------------------------
Problem: 
- Name: x1
  Lower bound: 458.51292792234784
  Upper bound: 458.51292792234784
  Number of objectives: 1
  Number of constraints: 4210755
  Number of variables: 1900387
  Number of binary variables: 0
  Number of integer variables: 0
  Number of continuous variables: 1900387
  Number of nonzeros: 11968922
  Sense: minimize
# ----------------------------------------------------------
#   Solver Information
# ----------------------------------------------------------
Solver: 
- Status: ok
  Return code: 0
  Message: Model was solved to optimality (subject to tolerances), and an optimal solution is available.
  Termination condition: optimal
  Termination message: Model was solved to optimality (subject to tolerances), and an optimal solution is available.
  Wall time: 83.96685981750488
  Error rc: 0
  Time: 117.25559520721436
# ----------------------------------------------------------
#   Solution Information
# ----------------------------------------------------------
Solution: 
- number of solutions: 0
  number of solutions displayed: 0
Solving                               ...  2252 s
Objective function value                   458.51 M€
Objective function value                   458.51292792234784
Writing         cost summary results  ...  0 s
Writing           investment results  ...  0 s
Writing       energy balance results  ...  20 s
Writing    network operation results  ...  6 s
Writing generation operation results  ...  5 s
Writing        ESS operation results  ...  0 s
Writing             economic results  ...  1 s

 #### Academic research license - for non-commercial use only #### 

Elapsed time: 2582 seconds
